NAME: GRASP_22_15
TYPE: TSP
COMMENT: line_22_15
DIMENSION: 22
EDGE_WEIGHT_TYPE: EUC_2D
NODE_COORD_SECTION
1 484 3735
2 1866 2552
3 2970 212
4 2911 2086
5 2443 42
6 3301 1293
7 635 2537
8 1979 4544
9 4467 3668
10 1846 3410
11 1629 3646
12 964 1536
13 4868 60
14 2675 130
15 3728 2665
16 2835 2099
17 1288 1640
18 4121 3435
19 2926 2454
20 3972 1380
21 2536 2518
22 1977 1627
